14
5 9
5 6
5 13
5 8
5 12
5 1
5 4
5 11
5 3
5 10
5 7
9 6
9 8
9 4
9 2
9 11
9 3
9 1
9 7
9 0
9 12
4 7
4 8
4 12
4 13
4 0
4 10
4 1
4 3
4 2
7 3
7 11
7 6
7 10
7 2
7 8
7 13
7 1
6 10
6 3
6 2
6 11
6 12
6 8
6 0
6 13
8 13
8 2
8 10
8 0
8 12
8 1
13 2
13 11
13 3
13 1
13 10
13 0
1 3
1 11
1 10
1 0
1 12
3 11
3 0
3 2
3 12
10 11
10 0
10 12
10 2
11 0
11 12
11 2
0 2
0 12
2 12
